opti
name
FROM_POSCAR
scell
15.471644 13.398837 34.47 0 0 0
cartesian
 Au  core  9.864755  8.120474  9.395340  0.00  1.00  0.00  0  0  0                                                                                                                                      
 Au  core  7.800814  1.928653  9.395340  0.00  1.00  0.00  0  0  0                                                                                                                                      
 Au  core  5.736874  8.120474  9.395340  0.00  1.00  0.00  0  0  0                                                                                                                                      
 Au  core  1.608993  1.928653  11.459283  0.00  1.00  0.00  0  0  0                                                                                                                                     
 Au  core  1.608993  6.056534  11.459283  0.00  1.00  0.00  0  0  0                                                                                                                                     
 Au  core  3.672934  8.120474  11.459283  0.00  1.00  0.00  0  0  0                                                                                                                                     
 Au  core  3.672934  3.992594  11.459283  0.00  1.00  0.00  0  0  0                                                                                                                                     
 Au  core  1.608993  3.992594  9.395340  0.00  1.00  0.00  0  0  0                                                                                                                                      
 Au  core  3.672934  -0.135287  11.459283  0.00  1.00  0.00  0  0  0                                                                                                                                    
 Au  core  9.864755  1.928653  11.459283  0.00  1.00  0.00  0  0  0                                                                                                                                     
 Au  core  9.864755  6.056534  11.459283  0.00  1.00  0.00  0  0  0                                                                                                                                     
 Au  core  7.800815  3.992594  11.459283  0.00  1.00  0.00  0  0  0                                                                                                                                     
Ce  core    7.735822    4.466279    0.789534  0.00  1.00  0.00  0  0  0                                                                                                                                 
Ce  core    3.867911    4.466279    0.789534  0.00  1.00  0.00  0  0  0                                                                                                                                 
Ce  core    5.801867    1.116570    0.789534  0.00  1.00  0.00  0  0  0                                                                                                                                 
Ce  core    1.933956    1.116570    0.789534  0.00  1.00  0.00  0  0  0                                                                                                                                 
Ce  core    3.867911    2.233139    3.947670  0.00  1.00  0.00  0  0  0                                                                                                                                 
Ce  core    0.000000    2.233139    3.947670  0.00  1.00  0.00  0  0  0                                                                                                                                 
Ce  core    1.933956   -1.116570    3.947670  0.00  1.00  0.00  0  0  0                                                                                                                                 
Ce  core   -1.933956   -1.116570    3.947670  0.00  1.00  0.00  0  0  0                                                                                                                                 
Ce  core    0.000000    0.000000    7.105806  0.00  1.00  0.00  0  0  0                                                                                                                                 
Ce  core   -3.867911    0.000000    7.105806  0.00  1.00  0.00  0  0  0                                                                                                                                 
Ce  core   -1.933956   -3.349709    7.105806  0.00  1.00  0.00  0  0  0                                                                                                                                 
Ce  core   -5.801867   -3.349709    7.105806  0.00  1.00  0.00  0  0  0                                                                                                                                 
Ce  core    7.735822   11.165697    0.789534  0.00  1.00  0.00  0  0  0                                                                                                                                 
Ce  core    3.867911   11.165697    0.789534  0.00  1.00  0.00  0  0  0                                                                                                                                 
Ce  core    5.801867    7.815988    0.789534  0.00  1.00  0.00  0  0  0                                                                                                                                 
Ce  core    1.933956    7.815988    0.789534  0.00  1.00  0.00  0  0  0                                                                                                                                 
Ce  core    3.867911    8.932558    3.947670  0.00  1.00  0.00  0  0  0                                                                                                                                 
Ce  core    0.000000    8.932558    3.947670  0.00  1.00  0.00  0  0  0                                                                                                                                 
Ce  core    1.933956    5.582849    3.947670  0.00  1.00  0.00  0  0  0                                                                                                                                 
Ce  core   -1.933956    5.582849    3.947670  0.00  1.00  0.00  0  0  0                                                                                                                                 
Ce  core    0.000000    6.699418    7.105806  0.00  1.00  0.00  0  0  0                                                                                                                                 
Ce  core   -3.867911    6.699418    7.105806  0.00  1.00  0.00  0  0  0                                                                                                                                 
Ce  core   -1.933956    3.349709    7.105806  0.00  1.00  0.00  0  0  0                                                                                                                                 
Ce  core   -5.801867    3.349709    7.105806  0.00  1.00  0.00  0  0  0                                                                                                                                 
Ce  core   15.471644    4.466279    0.789534  0.00  1.00  0.00  0  0  0                                                                                                                                 
Ce  core   11.603733    4.466279    0.789534  0.00  1.00  0.00  0  0  0                                                                                                                                 
Ce  core   13.537689    1.116570    0.789534  0.00  1.00  0.00  0  0  0                                                                                                                                 
Ce  core    9.669778    1.116570    0.789534  0.00  1.00  0.00  0  0  0                                                                                                                                 
Ce  core   11.603733    2.233139    3.947670  0.00  1.00  0.00  0  0  0                                                                                                                                 
Ce  core    7.735822    2.233139    3.947670  0.00  1.00  0.00  0  0  0                                                                                                                                 
Ce  core    9.669778   -1.116570    3.947670  0.00  1.00  0.00  0  0  0                                                                                                                                 
Ce  core    5.801867   -1.116570    3.947670  0.00  1.00  0.00  0  0  0                                                                                                                                 
Ce  core    7.735822    0.000000    7.105806  0.00  1.00  0.00  0  0  0                                                                                                                                 
Ce  core    3.867911    0.000000    7.105806  0.00  1.00  0.00  0  0  0                                                                                                                                 
Ce  core    5.801867   -3.349709    7.105806  0.00  1.00  0.00  0  0  0                                                                                                                                 
Ce  core    1.933956   -3.349709    7.105806  0.00  1.00  0.00  0  0  0                                                                                                                                 
Ce  core   15.471644   11.165697    0.789534  0.00  1.00  0.00  0  0  0                                                                                                                                 
Ce  core   11.603733   11.165697    0.789534  0.00  1.00  0.00  0  0  0                                                                                                                                 
Ce  core   13.537689    7.815988    0.789534  0.00  1.00  0.00  0  0  0                                                                                                                                 
Ce  core    9.669778    7.815988    0.789534  0.00  1.00  0.00  0  0  0                                                                                                                                 
Ce  core   11.603733    8.932558    3.947670  0.00  1.00  0.00  0  0  0                                                                                                                                 
Ce  core    7.735822    8.932558    3.947670  0.00  1.00  0.00  0  0  0                                                                                                                                 
Ce  core    9.669778    5.582849    3.947670  0.00  1.00  0.00  0  0  0                                                                                                                                 
Ce  core    5.801867    5.582849    3.947670  0.00  1.00  0.00  0  0  0                                                                                                                                 
Ce  core    7.735822    6.699418    7.105806  0.00  1.00  0.00  0  0  0                                                                                                                                 
Ce  core    3.867911    6.699418    7.105806  0.00  1.00  0.00  0  0  0                                                                                                                                 
Ce  core    5.801867    3.349709    7.105806  0.00  1.00  0.00  0  0  0                                                                                                                                 
Ce  core    1.933956    3.349709    7.105806  0.00  1.00  0.00  0  0  0                                                                                                                                 
O   core   11.603733    6.699418    0.000000  0.00  1.00  0.00  0  0  0                                                                                                                                 
O   core    9.669778    3.349709    0.000000  0.00  1.00  0.00  0  0  0                                                                                                                                 
O   core    7.735822    6.699418    0.000000  0.00  1.00  0.00  0  0  0                                                                                                                                 
O   core    5.801867    3.349709    0.000000  0.00  1.00  0.00  0  0  0                                                                                                                                 
O   core    5.801867    5.582849    1.579068  0.00  1.00  0.00  0  0  0                                                                                                                                 
O   core    7.735822    2.233139    1.579068  0.00  1.00  0.00  0  0  0                                                                                                                                 
O   core    9.669778    5.582849    1.579068  0.00  1.00  0.00  0  0  0                                                                                                                                 
O   core    3.867911    2.233139    1.579068  0.00  1.00  0.00  0  0  0                                                                                                                                 
O   core    7.735822    4.466279    3.158136  0.00  1.00  0.00  0  0  0                                                                                                                                 
O   core    5.801867    1.116570    3.158136  0.00  1.00  0.00  0  0  0                                                                                                                                 
O   core    3.867911    4.466279    3.158136  0.00  1.00  0.00  0  0  0                                                                                                                                 
O   core    1.933956    1.116570    3.158136  0.00  1.00  0.00  0  0  0                                                                                                                                 
O   core    1.933956    3.349709    4.737204  0.00  1.00  0.00  0  0  0                                                                                                                                 
O   core    3.867911    0.000000    4.737204  0.00  1.00  0.00  0  0  0                                                                                                                                 
O   core    5.801867    3.349709    4.737204  0.00  1.00  0.00  0  0  0                                                                                                                                 
O   core    0.000000    0.000000    4.737204  0.00  1.00  0.00  0  0  0                                                                                                                                 
O   core    3.867911    2.233139    6.316272  0.00  1.00  0.00  0  0  0                                                                                                                                 
O   core    1.933956   -1.116570    6.316272  0.00  1.00  0.00  0  0  0                                                                                                                                 
O   core    0.000000    2.233139    6.316272  0.00  1.00  0.00  0  0  0                                                                                                                                 
O   core   -1.933956   -1.116570    6.316272  0.00  1.00  0.00  0  0  0                                                                                                                                 
O   core   -1.933956    1.116570    7.895340  0.00  1.00  0.00  0  0  0                                                                                                                                 
O   core    0.000000   -2.233139    7.895340  0.00  1.00  0.00  0  0  0                                                                                                                                 
O   core    1.933956    1.116570    7.895340  0.00  1.00  0.00  0  0  0                                                                                                                                 
O   core   -3.867911   -2.233139    7.895340  0.00  1.00  0.00  0  0  0                                                                                                                                 
O   core   11.603733   13.398837    0.000000  0.00  1.00  0.00  0  0  0                                                                                                                                 
O   core    9.669778   10.049128    0.000000  0.00  1.00  0.00  0  0  0                                                                                                                                 
O   core    7.735822   13.398837    0.000000  0.00  1.00  0.00  0  0  0                                                                                                                                 
O   core    5.801867   10.049128    0.000000  0.00  1.00  0.00  0  0  0                                                                                                                                 
O   core    5.801867   12.282267    1.579068  0.00  1.00  0.00  0  0  0                                                                                                                                 
O   core    7.735822    8.932558    1.579068  0.00  1.00  0.00  0  0  0                                                                                                                                 
O   core    9.669778   12.282267    1.579068  0.00  1.00  0.00  0  0  0                                                                                                                                 
O   core    3.867911    8.932558    1.579068  0.00  1.00  0.00  0  0  0                                                                                                                                 
O   core    7.735822   11.165697    3.158136  0.00  1.00  0.00  0  0  0                                                                                                                                 
O   core    5.801867    7.815988    3.158136  0.00  1.00  0.00  0  0  0                                                                                                                                 
O   core    3.867911   11.165697    3.158136  0.00  1.00  0.00  0  0  0                                                                                                                                 
O   core    1.933956    7.815988    3.158136  0.00  1.00  0.00  0  0  0                                                                                                                                 
O   core    1.933956   10.049128    4.737204  0.00  1.00  0.00  0  0  0                                                                                                                                 
O   core    3.867911    6.699418    4.737204  0.00  1.00  0.00  0  0  0                                                                                                                                 
O   core    5.801867   10.049128    4.737204  0.00  1.00  0.00  0  0  0                                                                                                                                 
O   core    0.000000    6.699418    4.737204  0.00  1.00  0.00  0  0  0                                                                                                                                 
O   core    3.867911    8.932558    6.316272  0.00  1.00  0.00  0  0  0                                                                                                                                 
O   core    1.933956    5.582849    6.316272  0.00  1.00  0.00  0  0  0                                                                                                                                 
O   core    0.000000    8.932558    6.316272  0.00  1.00  0.00  0  0  0                                                                                                                                 
O   core   -1.933956    5.582849    6.316272  0.00  1.00  0.00  0  0  0                                                                                                                                 
O   core   -1.933956    7.815988    7.895340  0.00  1.00  0.00  0  0  0                                                                                                                                 
O   core    0.000000    4.466279    7.895340  0.00  1.00  0.00  0  0  0                                                                                                                                 
O   core    1.933956    7.815988    7.895340  0.00  1.00  0.00  0  0  0                                                                                                                                 
O   core   -3.867911    4.466279    7.895340  0.00  1.00  0.00  0  0  0                                                                                                                                 
O   core   19.339555    6.699418    0.000000  0.00  1.00  0.00  0  0  0                                                                                                                                 
O   core   17.405600    3.349709    0.000000  0.00  1.00  0.00  0  0  0                                                                                                                                 
O   core   15.471644    6.699418    0.000000  0.00  1.00  0.00  0  0  0                                                                                                                                 
O   core   13.537689    3.349709    0.000000  0.00  1.00  0.00  0  0  0                                                                                                                                 
O   core   13.537689    5.582849    1.579068  0.00  1.00  0.00  0  0  0                                                                                                                                 
O   core   15.471644    2.233139    1.579068  0.00  1.00  0.00  0  0  0                                                                                                                                 
O   core   17.405600    5.582849    1.579068  0.00  1.00  0.00  0  0  0                                                                                                                                 
O   core   11.603733    2.233139    1.579068  0.00  1.00  0.00  0  0  0                                                                                                                                 
O   core   15.471644    4.466279    3.158136  0.00  1.00  0.00  0  0  0                                                                                                                                 
O   core   13.537689    1.116570    3.158136  0.00  1.00  0.00  0  0  0                                                                                                                                 
O   core   11.603733    4.466279    3.158136  0.00  1.00  0.00  0  0  0                                                                                                                                 
O   core    9.669778    1.116570    3.158136  0.00  1.00  0.00  0  0  0                                                                                                                                 
O   core    9.669778    3.349709    4.737204  0.00  1.00  0.00  0  0  0                                                                                                                                 
O   core   11.603733    0.000000    4.737204  0.00  1.00  0.00  0  0  0                                                                                                                                 
O   core   13.537689    3.349709    4.737204  0.00  1.00  0.00  0  0  0                                                                                                                                 
O   core    7.735822    0.000000    4.737204  0.00  1.00  0.00  0  0  0                                                                                                                                 
O   core   11.603733    2.233139    6.316272  0.00  1.00  0.00  0  0  0                                                                                                                                 
O   core    9.669778   -1.116570    6.316272  0.00  1.00  0.00  0  0  0                                                                                                                                 
O   core    7.735822    2.233139    6.316272  0.00  1.00  0.00  0  0  0                                                                                                                                 
O   core    5.801867   -1.116570    6.316272  0.00  1.00  0.00  0  0  0                                                                                                                                 
O   core    5.801867    1.116570    7.895340  0.00  1.00  0.00  0  0  0                                                                                                                                 
O   core    7.735822   -2.233139    7.895340  0.00  1.00  0.00  0  0  0                                                                                                                                 
O   core    9.669778    1.116570    7.895340  0.00  1.00  0.00  0  0  0                                                                                                                                 
O   core    3.867911   -2.233139    7.895340  0.00  1.00  0.00  0  0  0                                                                                                                                 
O   core   19.339555   13.398837    0.000000  0.00  1.00  0.00  0  0  0                                                                                                                                 
O   core   17.405600   10.049128    0.000000  0.00  1.00  0.00  0  0  0                                                                                                                                 
O   core   15.471644   13.398837    0.000000  0.00  1.00  0.00  0  0  0                                                                                                                                 
O   core   13.537689   10.049128    0.000000  0.00  1.00  0.00  0  0  0                                                                                                                                 
O   core   13.537689   12.282267    1.579068  0.00  1.00  0.00  0  0  0                                                                                                                                 
O   core   15.471644    8.932558    1.579068  0.00  1.00  0.00  0  0  0                                                                                                                                 
O   core   17.405600   12.282267    1.579068  0.00  1.00  0.00  0  0  0                                                                                                                                 
O   core   11.603733    8.932558    1.579068  0.00  1.00  0.00  0  0  0                                                                                                                                 
O   core   15.471644   11.165697    3.158136  0.00  1.00  0.00  0  0  0                                                                                                                                 
O   core   13.537689    7.815988    3.158136  0.00  1.00  0.00  0  0  0                                                                                                                                 
O   core   11.603733   11.165697    3.158136  0.00  1.00  0.00  0  0  0                                                                                                                                 
O   core    9.669778    7.815988    3.158136  0.00  1.00  0.00  0  0  0                                                                                                                                 
O   core    9.669778   10.049128    4.737204  0.00  1.00  0.00  0  0  0                                                                                                                                 
O   core   11.603733    6.699418    4.737204  0.00  1.00  0.00  0  0  0                                                                                                                                 
O   core   13.537689   10.049128    4.737204  0.00  1.00  0.00  0  0  0                                                                                                                                 
O   core    7.735822    6.699418    4.737204  0.00  1.00  0.00  0  0  0                                                                                                                                 